cases/matpower/case5_db.m
ipopt
SOCW
[warn | PowerModels]: added zero cost function data for dclines
[warn | PowerModels]: active generators found at bus 1, updating to bus type from 1 to 2
[warn | PowerModels]: active generators found at bus 5, updating to bus type from 1 to 2
[warn | PowerModels]: the voltage setpoint on generator 4 does not match the value at bus 5
[warn | PowerModels]: the voltage setpoint on generator 2 does not match the value at bus 1
[warn | PowerModels]: the to bus voltage setpoint on dc line 1 does not match the value at bus 5
[info | PowerModels]: removing 3 cost terms from dcline 1: Float64[]

******************************************************************************
This program contains Ipopt, a library for large-scale nonlinear optimization.
 Ipopt is released as open source code under the Eclipse Public License (EPL).
         For more information visit http://projects.coin-or.org/Ipopt
******************************************************************************

This is Ipopt version 3.13.2, running with linear solver mumps.
NOTE: Other linear solvers might be more efficient (see Ipopt documentation).

Number of nonzeros in equality constraint Jacobian...:       94
Number of nonzeros in inequality constraint Jacobian.:       72
Number of nonzeros in Lagrangian Hessian.............:       28

Total number of variables............................:       41
                     variables with only lower bounds:        0
                variables with lower and upper bounds:       41
                     variables with only upper bounds:        0
Total number of equality constraints.................:       27
Total number of inequality constraints...............:       28
        inequality constraints with only lower bounds:       12
   inequality constraints with lower and upper bounds:        0
        inequality constraints with only upper bounds:       16

iter    objective    inf_pr   inf_du lg(mu)  ||d||  lg(rg) alpha_du alpha_pr  ls
   0  7.0599921e+01 3.99e+00 2.95e+01  -1.0 0.00e+00    -  0.00e+00 0.00e+00   0
   1  4.4997234e+02 3.87e+00 2.50e+01  -1.0 1.00e+01    -  4.71e-03 3.07e-02h  1
   2  3.9276599e+02 3.83e+00 2.31e+01  -1.0 1.13e+01    -  4.84e-02 9.52e-03f  1
   3  1.5307537e+03 3.39e+00 5.48e+01  -1.0 7.94e+00    -  4.68e-01 1.14e-01h  1
   4  3.0216558e+03 2.80e+00 4.26e+01  -1.0 7.59e+00    -  1.31e-01 1.74e-01h  1
   5  6.7300613e+03 1.39e+00 5.36e+01  -1.0 7.07e+00    -  4.36e-01 5.05e-01H  1
   6  7.3224186e+03 1.23e+00 5.79e+01  -1.0 2.88e+00    -  8.52e-02 1.16e-01h  1
   7  9.0169772e+03 7.82e-01 6.16e+01  -1.0 3.07e+00    -  7.51e-01 3.62e-01h  1
   8  9.0594014e+03 7.70e-01 4.33e+02  -1.0 2.53e+00    -  3.10e-01 1.51e-02h  1
   9  9.1201383e+03 7.51e-01 4.94e+02  -1.0 2.57e+00    -  2.96e-02 2.54e-02h  1
iter    objective    inf_pr   inf_du lg(mu)  ||d||  lg(rg) alpha_du alpha_pr  ls
  10  1.1898273e+04 4.75e-01 6.23e+02  -1.0 1.89e+00    -  2.08e-03 3.67e-01h  1
  11  1.6732537e+04 4.75e-03 2.25e+02  -1.0 1.22e+00    -  9.40e-01 9.90e-01h  1
  12  1.6770253e+04 4.71e-05 1.52e+01  -1.0 1.02e+00    -  1.00e+00 9.90e-01h  1
  13  1.6771684e+04 7.60e-08 1.52e+02  -1.0 2.16e-01    -  1.00e+00 9.98e-01h  1
  14  1.6771778e+04 7.37e-15 5.61e-06  -1.0 5.94e-03    -  1.00e+00 1.00e+00h  1
  15  1.6743351e+04 1.31e-06 7.98e+05  -5.7 3.08e-01    -  9.07e-01 1.00e+00f  1
  16  1.6740069e+04 1.16e-05 1.91e+05  -5.7 2.78e-01    -  7.60e-01 1.00e+00h  1
  17  1.6739135e+04 2.80e-06 2.03e+04  -5.7 1.06e-01    -  8.94e-01 1.00e+00h  1
  18  1.6739052e+04 9.98e-07 1.77e+00  -5.7 3.04e-02    -  1.00e+00 6.85e-01h  1
  19  1.6739059e+04 2.31e-07 1.52e-04  -5.7 3.97e-02    -  1.00e+00 1.00e+00h  1
iter    objective    inf_pr   inf_du lg(mu)  ||d||  lg(rg) alpha_du alpha_pr  ls
  20  1.6739065e+04 2.75e-10 7.08e-06  -5.7 1.19e-02    -  1.00e+00 1.00e+00h  1
  21  1.6739065e+04 2.97e-14 3.79e-09  -5.7 6.23e-04    -  1.00e+00 1.00e+00h  1
  22  1.6739065e+04 1.16e-14 1.62e+00  -8.6 6.28e-04    -  1.00e+00 9.91e-01h  1
  23  1.6739065e+04 3.39e-14 4.59e-12  -8.6 8.62e-06    -  1.00e+00 1.00e+00f  1

Number of Iterations....: 23

                                   (scaled)                 (unscaled)
Objective...............:   4.1847661468552269e+02    1.6739064587420908e+04
Dual infeasibility......:   4.5927706082693476e-12    1.8371082433077390e-10
Constraint violation....:   2.1924151383245771e-14    3.3917313402298532e-14
Complementarity.........:   2.5065371001794724e-09    1.0026148400717889e-07
Overall NLP error.......:   2.5065371001794724e-09    1.0026148400717889e-07


Number of objective function evaluations             = 25
Number of objective gradient evaluations             = 24
Number of equality constraint evaluations            = 25
Number of inequality constraint evaluations          = 25
Number of equality constraint Jacobian evaluations   = 24
Number of inequality constraint Jacobian evaluations = 24
Number of Lagrangian Hessian evaluations             = 23
Total CPU secs in IPOPT (w/o function evaluations)   =      0.245
Total CPU secs in NLP function evaluations           =      0.210

EXIT: Optimal Solution Found.
Time to Solution........:1.1864819526672363
